50

94 18 282
92 15 295
89 8 271
88 5 297
88 24 273
87 27 264
86 6 282
84 24 289
82 23 275
82 18 276
81 9 244
79 1 248
77 6 290
77 15 284
77 3 241
76 5 253
73 16 279
72 5 252
70 9 283
69 11 269
68 10 226
68 18 266
65 8 253
63 3 286
63 12 295
61 6 240
59 3 246
58 13 245
57 15 224
55 6 296
54 16 283
52 9 269
52 15 255
52 10 299
51 13 177
48 13 293
46 2 145
43 8 170
40 2 287
38 7 195
37 2 136
37 2 297
36 3 182
35 5 290
35 9 267
35 7 153
34 3 215
34 3 138
34 9 187
33 8 267
